12° run output:
{
    "Function": "kroB300.tsp",
    "Problem dimension": [
        33,
        128,
        136,
        161,
        280,
        258,
        183,
        56,
        268,
        229,
        74,
        70,
        195,
        270,
        235,
        154,
        252,
        259,
        288,
        285,
        186,
        230,
        43,
        47,
        297,
        22,
        190,
        97,
        141,
        218,
        166,
        90,
        52,
        257,
        276,
        140,
        27,
        121,
        39,
        192,
        19,
        251,
        223,
        64,
        275,
        174,
        98,
        213,
        58,
        11,
        26,
        191,
        57,
        208,
        282,
        102,
        187,
        178,
        250,
        104,
        260,
        291,
        138,
        286,
        169,
        225,
        120,
        202,
        254,
        152,
        126,
        290,
        61,
        189,
        84,
        227,
        103,
        232,
        265,
        93,
        82,
        111,
        80,
        159,
        248,
        112,
        155,
        205,
        287,
        137,
        165,
        131,
        66,
        256,
        37,
        284,
        272,
        184,
        110,
        176,
        196,
        67,
        239,
        68,
        204,
        36,
        100,
        89,
        188,
        83,
        158,
        91,
        199,
        125,
        283,
        156,
        29,
        46,
        203,
        18,
        153,
        15,
        105,
        114,
        73,
        221,
        45,
        217,
        299,
        160,
        101,
        16,
        81,
        53,
        185,
        118,
        77,
        289,
        279,
        13,
        87,
        145,
        240,
        271,
        44,
        41,
        215,
        17,
        86,
        127,
        144,
        3,
        147,
        35,
        220,
        7,
        175,
        24,
        263,
        95,
        237,
        50,
        274,
        146,
        88,
        262,
        42,
        164,
        20,
        293,
        49,
        79,
        197,
        211,
        51,
        226,
        63,
        294,
        1,
        25,
        9,
        255,
        119,
        38,
        28,
        117,
        108,
        234,
        266,
        30,
        238,
        179,
        173,
        23,
        224,
        193,
        94,
        207,
        177,
        106,
        122,
        116,
        249,
        113,
        231,
        65,
        76,
        133,
        278,
        69,
        180,
        60,
        75,
        85,
        269,
        10,
        298,
        0,
        55,
        200,
        168,
        209,
        130,
        245,
        151,
        273,
        281,
        244,
        92,
        148,
        162,
        233,
        78,
        6,
        295,
        253,
        123,
        201,
        5,
        181,
        40,
        170,
        261,
        172,
        72,
        99,
        54,
        194,
        212,
        264,
        32,
        292,
        59,
        182,
        21,
        242,
        48,
        8,
        228,
        222,
        296,
        210,
        214,
        267,
        277,
        246,
        142,
        143,
        216,
        167,
        109,
        14,
        129,
        12,
        115,
        150,
        134,
        163,
        149,
        219,
        4,
        243,
        31,
        34,
        96,
        2,
        157,
        135,
        71,
        247,
        62,
        236,
        206,
        124,
        171,
        107,
        132,
        198,
        139,
        241
    ],
    "Global Optimum": 0,
    "Algorithm": "Genetic algorithm",
    "Parameters": {
        "population": 30,
        "offspring": 30,
        "mutation probability": 0.0033333333333333335,
        "crossover probability": 0.9
    },
    "Fitness": 332883,
    "Solution": [
        33,
        128,
        136,
        161,
        280,
        258,
        183,
        56,
        268,
        229,
        74,
        70,
        195,
        270,
        235,
        154,
        252,
        259,
        288,
        285,
        186,
        230,
        43,
        47,
        297,
        22,
        190,
        97,
        141,
        218,
        166,
        90,
        52,
        257,
        276,
        140,
        27,
        121,
        39,
        192,
        19,
        251,
        223,
        64,
        275,
        174,
        98,
        213,
        58,
        11,
        26,
        191,
        57,
        208,
        282,
        102,
        187,
        178,
        250,
        104,
        260,
        291,
        138,
        286,
        169,
        225,
        120,
        202,
        254,
        152,
        126,
        290,
        61,
        189,
        84,
        227,
        103,
        232,
        265,
        93,
        82,
        111,
        80,
        159,
        248,
        112,
        155,
        205,
        287,
        137,
        165,
        131,
        66,
        256,
        37,
        284,
        272,
        184,
        110,
        176,
        196,
        67,
        239,
        68,
        204,
        36,
        100,
        89,
        188,
        83,
        158,
        91,
        199,
        125,
        283,
        156,
        29,
        46,
        203,
        18,
        153,
        15,
        105,
        114,
        73,
        221,
        45,
        217,
        299,
        160,
        101,
        16,
        81,
        53,
        185,
        118,
        77,
        289,
        279,
        13,
        87,
        145,
        240,
        271,
        44,
        41,
        215,
        17,
        86,
        127,
        144,
        3,
        147,
        35,
        220,
        7,
        175,
        24,
        263,
        95,
        237,
        50,
        274,
        146,
        88,
        262,
        42,
        164,
        20,
        293,
        49,
        79,
        197,
        211,
        51,
        226,
        63,
        294,
        1,
        25,
        9,
        255,
        119,
        38,
        28,
        117,
        108,
        234,
        266,
        30,
        238,
        179,
        173,
        23,
        224,
        193,
        94,
        207,
        177,
        106,
        122,
        116,
        249,
        113,
        231,
        65,
        76,
        133,
        278,
        69,
        180,
        60,
        75,
        85,
        269,
        10,
        298,
        0,
        55,
        200,
        168,
        209,
        130,
        245,
        151,
        273,
        281,
        244,
        92,
        148,
        162,
        233,
        78,
        6,
        295,
        253,
        123,
        201,
        5,
        181,
        40,
        170,
        261,
        172,
        72,
        99,
        54,
        194,
        212,
        264,
        32,
        292,
        59,
        182,
        21,
        242,
        48,
        8,
        228,
        222,
        296,
        210,
        214,
        267,
        277,
        246,
        142,
        143,
        216,
        167,
        109,
        14,
        129,
        12,
        115,
        150,
        134,
        163,
        149,
        219,
        4,
        243,
        31,
        34,
        96,
        2,
        157,
        135,
        71,
        247,
        62,
        236,
        206,
        124,
        171,
        107,
        132,
        198,
        139,
        241
    ],
    "Nb of functions evaluations": 50010,
    "Computational time in seconds": 145.43087577819824,
    "Stopping criterion in evaluations": 50000
}